outputs/case_87.model.txt
bank_license_permitted = False
bank_follow_agent_broker_regulations = False
violate_financial_or_business_management_rules = True
transfer_due_to_inheritance = False
broker_fulfill_fidelity_duty = True
broker_provide_written_report = False
related_insurance_purchased = True
is_notary = False
share_or_capital_transfer_ratio = 50
business_type_insurance_broker = True
insurance_type_responsibility = True
is_agent = False
bank_engage_agent = False
bank_engage_broker = False
paid_in_capital = 3000000
penalty_imposed = True
contribution_is_cash_only = True
license_held = True
capital_adjusted_within_6_months = False
application_date_after_110_03_03 = False
broker_charge_fee = False
business_type_reinsurance_broker = False
minor_offense_no_penalty = False
repeat_penalty_imposed = False
broker_minimum_capital_requirement = False
broker_exercise_duty_of_care = True
broker_disclose_fee_standard = False
capital_minimum_amount_and_implementation_ok = False
insurance_type_guarantee = True
agent_broker_notary_license_and_insurance_ok = True
guarantee_deposit_paid = True
broker_duty_of_care_and_fidelity = True
license_permitted = True
related_insurance_type_ok = True
management_rules_compliance = True
management_rules_followed = True
violation_financial_or_business_management_rules = True
capital_minimum_amount_compliance = False
broker_capital_adjustment_compliance = False
penalty = False
penalty_imposed_for_violation = True
bank_permitted_to_engage_agent_or_broker = False
practice_certificate_held = True
penalty_repeat_offense = False
broker_provide_written_report_and_disclose_fee = False
broker_contribution_cash_only = True